\ENCODING=ISO-8859-1
\Problem name: IloCplex

Maximize
 obj: - 7.16049382716049 x(5,8) + 54.4691358024691 x(6,7)
      - 19.3827160493827 x(1,2) + 48.7407407407407 x(2,7)
      + 48.7407407407407 x(1,7) + 47.3086419753086 x(5,7)
      + 14.7407407407407 x(2,4) - 999997.851851852 x(0,8)
      - 20.0493827160494 x(4,5) + 26.2222222222222 x(1,3)
      - 28.641975308642 x(2,5) - 999936.222222222 x(0,7)
      - 999952.296296296 x(0,3) + 22.962962962963 x(4,7)
      + 21.5308641975309 x(7,9) - 999967.358024691 x(0,4)
      - 52.9876543209877 x(2,8) - 68.0740740740741 x(3,6)
      - 53.7037037037037 x(1,8) + 7.20987654320988 x(3,7)
      - 64.4444444444444 x(3,5) - 14.3703703703704 x(8,6)
      - 9.30864197530864 x(8,5) - 21.5308641975309 x(7,6)
      - 22.962962962963 x(2,1) - 21.5308641975309 x(7,2)
      - 25.1111111111111 x(7,1) - 16.4691358024691 x(7,5)
      - 24.3950617283951 x(4,2) - 999951.703703704 x(8,0)
      + 12.5925925925926 x(5,4) - 31.5555555555556 x(3,1)
      - 35.1358024691358 x(5,2) - 999951.703703704 x(7,0)
      - 999951.703703704 x(3,0) - 8.17283950617283 x(7,4)
      + 21.5308641975309 x(9,7) - 999951.703703704 x(4,0)
      - 61.6296296296296 x(8,2) - 8.14814814814815 x(6,3)
      - 65.9259259259259 x(8,1) - 8.8641975308642 x(7,3)
      - 16.7407407407407 x(5,3) + 48.2962962962963 x(10,0)
      - 10.0740740740741 x(10,1) - 6.49382716049383 x(10,2)
      + 47.7037037037037 x(10,3) + 32.641975308642 x(10,4)
      - 12.2222222222222 x(10,6) + 63.7777777777778 x(10,7)
      + 2.14814814814815 x(10,8) + 63.7777777777778 x(10,9) - 63.7777777777778
Subject To
 Cons_OneOutgoingArc(0):     x(8,0) + x(7,0) + x(3,0) + x(4,0) + x(10,0) - y(0)
                              = 0
 Cons_OneOutgoingArc(1):     x(2,1) + x(7,1) + x(3,1) + x(8,1) + x(10,1) - y(1)
                              = 0
 Cons_OneOutgoingArc(2):     x(1,2) + x(7,2) + x(4,2) + x(5,2) + x(8,2)
                             + x(10,2) - y(2)  = 0
 Cons_OneOutgoingArc(3):     x(1,3) + x(0,3) + x(6,3) + x(7,3) + x(5,3)
                             + x(10,3) - y(3)  = 0
 Cons_OneOutgoingArc(4):     x(2,4) + x(0,4) + x(5,4) + x(7,4) + x(10,4) - y(4)
                              = 0
 Cons_OneOutgoingArc(5):     x(4,5) + x(2,5) + x(3,5) + x(8,5) + x(7,5)
                             + x(10,5) - y(5)  = 0
 Cons_OneOutgoingArc(6):     x(3,6) + x(8,6) + x(7,6) + x(10,6) - y(6)  = 0
 Cons_OneOutgoingArc(7):     x(6,7) + x(2,7) + x(1,7) + x(5,7) + x(0,7)
                             + x(4,7) + x(3,7) + x(9,7) + x(10,7) - y(7)  = 0
 Cons_OneOutgoingArc(8):     x(6,8) + x(5,8) + x(0,8) + x(2,8) + x(1,8)
                             + x(10,8) - y(8)  = 0
 Cons_OneOutgoingArc(9):     x(7,9) + x(10,9) - y(9)  = 0
 Cons_ExactlyOneArcFromRoot: x(10,0) + x(10,1) + x(10,2) + x(10,3) + x(10,4)
                             + x(10,5) + x(10,6) + x(10,7) + x(10,8) + x(10,9)
                              = 1
 Cons_LoopsOfSizeTwo(0)1:    - x(6,8) - x(8,6) + y(6) >= 0
 Cons_LoopsOfSizeTwo(0)2:    - x(6,8) - x(8,6) + y(8) >= 0
 Cons_LoopsOfSizeTwo(1)1:    - x(5,8) - x(8,5) + y(5) >= 0
 Cons_LoopsOfSizeTwo(1)2:    - x(5,8) - x(8,5) + y(8) >= 0
 Cons_LoopsOfSizeTwo(2)1:    - x(6,7) - x(7,6) + y(6) >= 0
 Cons_LoopsOfSizeTwo(2)2:    - x(6,7) - x(7,6) + y(7) >= 0
 Cons_LoopsOfSizeTwo(3)1:    - x(1,2) - x(2,1) + y(1) >= 0
 Cons_LoopsOfSizeTwo(3)2:    - x(1,2) - x(2,1) + y(2) >= 0
 Cons_LoopsOfSizeTwo(4)1:    - x(2,7) - x(7,2) + y(2) >= 0
 Cons_LoopsOfSizeTwo(4)2:    - x(2,7) - x(7,2) + y(7) >= 0
 Cons_LoopsOfSizeTwo(5)1:    - x(1,7) - x(7,1) + y(1) >= 0
 Cons_LoopsOfSizeTwo(5)2:    - x(1,7) - x(7,1) + y(7) >= 0
 Cons_LoopsOfSizeTwo(6)1:    - x(5,7) - x(7,5) + y(5) >= 0
 Cons_LoopsOfSizeTwo(6)2:    - x(5,7) - x(7,5) + y(7) >= 0
 Cons_LoopsOfSizeTwo(7)1:    - x(2,4) - x(4,2) + y(2) >= 0
 Cons_LoopsOfSizeTwo(7)2:    - x(2,4) - x(4,2) + y(4) >= 0
 Cons_LoopsOfSizeTwo(8)1:    - x(0,8) - x(8,0) + y(0) >= 0
 Cons_LoopsOfSizeTwo(8)2:    - x(0,8) - x(8,0) + y(8) >= 0
 Cons_LoopsOfSizeTwo(9)1:    - x(4,5) - x(5,4) + y(4) >= 0
 Cons_LoopsOfSizeTwo(9)2:    - x(4,5) - x(5,4) + y(5) >= 0
 Cons_LoopsOfSizeTwo(10)1:   - x(1,3) - x(3,1) + y(1) >= 0
 Cons_LoopsOfSizeTwo(10)2:   - x(1,3) - x(3,1) + y(3) >= 0
 Cons_LoopsOfSizeTwo(11)1:   - x(2,5) - x(5,2) + y(2) >= 0
 Cons_LoopsOfSizeTwo(11)2:   - x(2,5) - x(5,2) + y(5) >= 0
 Cons_LoopsOfSizeTwo(12)1:   - x(0,7) - x(7,0) + y(0) >= 0
 Cons_LoopsOfSizeTwo(12)2:   - x(0,7) - x(7,0) + y(7) >= 0
 Cons_LoopsOfSizeTwo(13)1:   - x(0,3) - x(3,0) + y(0) >= 0
 Cons_LoopsOfSizeTwo(13)2:   - x(0,3) - x(3,0) + y(3) >= 0
 Cons_LoopsOfSizeTwo(14)1:   - x(4,7) - x(7,4) + y(4) >= 0
 Cons_LoopsOfSizeTwo(14)2:   - x(4,7) - x(7,4) + y(7) >= 0
 Cons_LoopsOfSizeTwo(15)1:   - x(7,9) - x(9,7) + y(7) >= 0
 Cons_LoopsOfSizeTwo(15)2:   - x(7,9) - x(9,7) + y(9) >= 0
 Cons_LoopsOfSizeTwo(16)1:   - x(0,4) - x(4,0) + y(0) >= 0
 Cons_LoopsOfSizeTwo(16)2:   - x(0,4) - x(4,0) + y(4) >= 0
 Cons_LoopsOfSizeTwo(17)1:   - x(2,8) - x(8,2) + y(2) >= 0
 Cons_LoopsOfSizeTwo(17)2:   - x(2,8) - x(8,2) + y(8) >= 0
 Cons_LoopsOfSizeTwo(18)1:   - x(3,6) - x(6,3) + y(3) >= 0
 Cons_LoopsOfSizeTwo(18)2:   - x(3,6) - x(6,3) + y(6) >= 0
 Cons_LoopsOfSizeTwo(19)1:   - x(1,8) - x(8,1) + y(1) >= 0
 Cons_LoopsOfSizeTwo(19)2:   - x(1,8) - x(8,1) + y(8) >= 0
 Cons_LoopsOfSizeTwo(20)1:   - x(3,7) - x(7,3) + y(3) >= 0
 Cons_LoopsOfSizeTwo(20)2:   - x(3,7) - x(7,3) + y(7) >= 0
 Cons_LoopsOfSizeTwo(21)1:   - x(3,5) - x(5,3) + y(3) >= 0
 Cons_LoopsOfSizeTwo(21)2:   - x(3,5) - x(5,3) + y(5) >= 0
 Cons_UpperBound:            3 x(6,8) + 13 x(5,8) + 13 x(6,7) + 18 x(1,2)
                             + 21 x(2,7) + 21 x(1,7) + 23 x(5,7) + 25 x(2,4)
                             + 27 x(0,8) + 28 x(4,5) + 30 x(1,3) + 40 x(2,5)
                             + 48 x(0,7) + 48 x(0,3) + 57 x(4,7) + 59 x(7,9)
                             + 69 x(0,4) + 77 x(2,8) + 78 x(3,6) + 78 x(1,8)
                             + 79 x(3,7) + 90 x(3,5) + 3 x(8,6) + 13 x(8,5)
                             + 13 x(7,6) + 18 x(2,1) + 21 x(7,2) + 21 x(7,1)
                             + 23 x(7,5) + 25 x(4,2) + 27 x(8,0) + 28 x(5,4)
                             + 30 x(3,1) + 40 x(5,2) + 48 x(7,0) + 48 x(3,0)
                             + 57 x(7,4) + 59 x(9,7) + 69 x(4,0) + 77 x(8,2)
                             + 78 x(6,3) + 78 x(8,1) + 79 x(7,3) + 90 x(5,3)
                             <= 102
Bounds
 0 <= x(6,8) <= 1
 0 <= x(5,8) <= 1
 0 <= x(6,7) <= 1
 0 <= x(1,2) <= 1
 0 <= x(2,7) <= 1
 0 <= x(1,7) <= 1
 0 <= x(5,7) <= 1
 0 <= x(2,4) <= 1
 0 <= x(0,8) <= 1
 0 <= x(4,5) <= 1
 0 <= x(1,3) <= 1
 0 <= x(2,5) <= 1
 0 <= x(0,7) <= 1
 0 <= x(0,3) <= 1
 0 <= x(4,7) <= 1
 0 <= x(7,9) <= 1
 0 <= x(0,4) <= 1
 0 <= x(2,8) <= 1
 0 <= x(3,6) <= 1
 0 <= x(1,8) <= 1
 0 <= x(3,7) <= 1
 0 <= x(3,5) <= 1
 0 <= x(8,6) <= 1
 0 <= x(8,5) <= 1
 0 <= x(7,6) <= 1
 0 <= x(2,1) <= 1
 0 <= x(7,2) <= 1
 0 <= x(7,1) <= 1
 0 <= x(7,5) <= 1
 0 <= x(4,2) <= 1
 0 <= x(8,0) <= 1
 0 <= x(5,4) <= 1
 0 <= x(3,1) <= 1
 0 <= x(5,2) <= 1
 0 <= x(7,0) <= 1
 0 <= x(3,0) <= 1
 0 <= x(7,4) <= 1
 0 <= x(9,7) <= 1
 0 <= x(4,0) <= 1
 0 <= x(8,2) <= 1
 0 <= x(6,3) <= 1
 0 <= x(8,1) <= 1
 0 <= x(7,3) <= 1
 0 <= x(5,3) <= 1
 0 <= x(10,0) <= 1
 0 <= x(10,1) <= 1
 0 <= x(10,2) <= 1
 0 <= x(10,3) <= 1
 0 <= x(10,4) <= 1
 0 <= x(10,5) <= 1
 0 <= x(10,6) <= 1
 0 <= x(10,7) <= 1
 0 <= x(10,8) <= 1
 0 <= x(10,9) <= 1
 0 <= y(0) <= 1
 0 <= y(1) <= 1
 0 <= y(2) <= 1
 0 <= y(3) <= 1
 0 <= y(4) <= 1
 0 <= y(5) <= 1
 0 <= y(6) <= 1
      y(7) = 1
 0 <= y(8) <= 1
 0 <= y(9) <= 1
Binaries
 x(6,8)  x(5,8)  x(6,7)  x(1,2)  x(2,7)  x(1,7)  x(5,7)  x(2,4)  x(0,8) 
 x(4,5)  x(1,3)  x(2,5)  x(0,7)  x(0,3)  x(4,7)  x(7,9)  x(0,4)  x(2,8) 
 x(3,6)  x(1,8)  x(3,7)  x(3,5)  x(8,6)  x(8,5)  x(7,6)  x(2,1)  x(7,2) 
 x(7,1)  x(7,5)  x(4,2)  x(8,0)  x(5,4)  x(3,1)  x(5,2)  x(7,0)  x(3,0) 
 x(7,4)  x(9,7)  x(4,0)  x(8,2)  x(6,3)  x(8,1)  x(7,3)  x(5,3)  x(10,0) 
 x(10,1)  x(10,2)  x(10,3)  x(10,4)  x(10,5)  x(10,6)  x(10,7)  x(10,8) 
 x(10,9)  y(0)  y(1)  y(2)  y(3)  y(4)  y(5)  y(6)  y(7)  y(8)  y(9) 
End
